,strain [1],vMdamFac,vonMisesdamind,stress [MPa]
0,0.0,0.0,0.0,0.0
1,0.001,0.0,0.0055053794021325,2.8757572207153514
2,0.002,0.0,0.011010758804265,5.751514441430704
3,0.003,0.0,0.0165161382063975,8.627271662146061
4,0.004,0.0,0.02202151760853,11.503028882861408
5,0.005,0.0,0.0275268970106626,14.378786103576795
6,0.006,0.0,0.0330322764127951,17.25454332429212
7,0.007,7.906521004753511e-07,0.0385376558149276,20.130300545007454
8,0.008,2.207915226051105e-06,0.0440430352170601,23.006057765722822
9,0.009,1.0455635131231166e-05,0.0495484146191926,25.881814986438208
10,0.01,2.921085440669849e-05,0.0550537940213252,28.7575722071536
11,0.011,5.855637759152424e-05,0.0605591734234577,31.633329427868926
12,0.012,0.00011040166800229236,0.0660645528255903,34.50908664858424
13,0.013,0.0001537428920664368,0.0715699322277229,37.384843869299644
14,0.014,0.0002421179900306276,0.0770753116298553,40.26060109001493
15,0.015,0.000341543141279783,0.082580691031988,43.13635831073031
16,0.016,0.0005215334843418423,0.0880860704341201,46.01211553144565
17,0.017,0.0006145372118878406,0.0935914498362533,48.88787275216111
18,0.018,0.0007975318868013439,0.0990968292383853,51.76362997287642
19,0.019,0.000998670636872622,0.1046022086405181,54.63938719359186
20,0.02,0.0012145523128276,0.1101075880426504,57.51514441430719
21,0.021,0.0014606844511023,0.1156124852103824,60.39061486121969
22,0.022,0.0016741545567696,0.1211171759037711,63.26596117780459
23,0.023,0.0019592013863244,0.1266216940749638,66.1412030954675
24,0.024,0.0022365933537459,0.1321262714779601,69.01648016038298
25,0.025,0.0027003317286835,0.1376304033650899,71.89148897585946
26,0.026,0.0033599857005185,0.1431345410672746,74.7665014575228
27,0.027,0.0041685171502684,0.1486386313650999,77.64148344210183
28,0.028,0.0050710688391546,0.1541416652048485,80.51582309930174
29,0.029,0.006213304556925,0.1596440737494703,83.38979771687094
30,0.03,0.0074188677341492,0.1651428675539703,86.26195378127628
31,0.031,0.0085236123332907,0.1706389903145799,89.13264231841349
32,0.032,0.0097106484419085,0.1761340687251029,92.00252395434723
33,0.033,0.0110778478456662,0.1816284994444856,94.87189456981923
34,0.034,0.0123711535487079,0.1871176096871299,97.73802441193175
35,0.035,0.0137017171894122,0.1926026144787178,100.60186776797757
36,0.036,0.0152376328401206,0.1980842455468873,103.4638261252265
37,0.037,0.0166200918198409,0.2035607656232949,106.32275036784876
38,0.038,0.0181167778220005,0.2090298131811032,109.17751972652273
39,0.039,0.0196265342525042,0.2144925360860983,112.02910207114749
40,0.04,0.0211857171636407,0.2199503987343631,114.87829383898013
41,0.041,0.0228202139587006,0.2254061133556978,117.72634147764145
42,0.042,0.0242820450880218,0.2308538210041856,120.5701923956176
43,0.043,0.0259722116315042,0.2362994051031085,123.41256254036263
44,0.044,0.0276987884853232,0.2417387957893474,126.25172292438043
45,0.045,0.0294971496411514,0.2471693358860344,129.086444547313
46,0.046,0.0311572238308686,0.2525860986909063,131.91435789816308
47,0.047,0.0328382415497006,0.2579911784272728,134.7364504637414
48,0.048,0.0345110754404846,0.2633880993640268,137.55417404338556
49,0.049,0.0363560994725169,0.2687798288725062,140.36899619769434
50,0.05,0.0382802115644526,0.2741645499259462,143.17972147540596
51,0.051,0.0402747976975685,0.2795400521127817,145.9853376233583
52,0.052,0.0422723932879842,0.2848990495578274,148.78230006197015
53,0.053,0.0441641631852328,0.2902413093093055,151.57069878686397
54,0.054,0.0460695277936413,0.2955730467227957,154.353250154958
55,0.055,0.0479837260258034,0.3009016655190007,157.13388613948487
56,0.056,0.0499023067092492,0.3062230659173588,159.91057415044094
57,0.057,0.0520875469344506,0.3115323111586249,162.68120565139122
58,0.058,0.0541326795760722,0.3168230926058695,165.4423571782585
59,0.059,0.0562415279373101,0.3220935396591778,168.19314393037442
60,0.06,0.0582020215376321,0.3273486709528842,170.93614849464672
61,0.061,0.0601694512096115,0.3325848461819603,173.66937963784352
62,0.062,0.062187598359591,0.3377928703156846,176.38751358566756
63,0.063,0.0641065126009742,0.3430359827906856,179.12373169842317
64,0.064,0.0660970040748082,0.3482512867988357,181.84513064127358
65,0.065,0.0681055081146385,0.3534134744967328,184.53801851855158
66,0.066,0.0699525355267772,0.3585918585930501,187.23919405779682
67,0.067,0.0718755153230744,0.363750130211647,189.9303798250141
68,0.068,0.0737403127978967,0.3689300672518829,192.63299892879067
69,0.069,0.0754674859637816,0.3740296265541364,195.2937853929715
70,0.07,0.0773378100530749,0.3791497615972719,197.96516709766678
71,0.071,0.0791061369004974,0.3842578574447506,200.6300706288605
72,0.072,0.0808306448589089,0.3893580906118631,203.29064822532268
73,0.073,0.0825333616868352,0.3944375543571084,205.94032622159062
74,0.074,0.0842205776768679,0.3994982979759252,208.58023382632314
75,0.075,0.0859089192741374,0.4045401773375779,211.21079349968437
76,0.076,0.0876169266792148,0.4095649340975178,213.8321928276858
77,0.077,0.0893239991404017,0.4145707232816126,216.4436608612912
78,0.078,0.0910865863141967,0.4195613697734179,219.04677307892877
79,0.079,0.0929129562477566,0.4245397662559893,221.64290776096456
80,0.08,0.0946875833070916,0.4295031468629129,224.2300519797129
81,0.081,0.0965417741490315,0.4344466168142446,226.80629791576047
82,0.082,0.098252884467747,0.4393695014551348,229.37122718714252
83,0.083,0.0999352102223933,0.4442745087541702,231.92641888946116
84,0.084,0.1017213632323843,0.4491566600526772,234.4699862356654
85,0.085,0.1034056818860117,0.4540117393031251,236.99940884380638
86,0.086,0.105091518644203,0.4588450580240463,239.51763293641224
87,0.087,0.1066093772915373,0.4636539851800754,242.02335561456724
88,0.088,0.1084281026456502,0.4684331683670705,244.5135904457799
89,0.089,0.1102416715206224,0.4731839249514486,246.9889663948136
90,0.09,0.111821911964949,0.4779052356130255,249.448796142818
91,0.091,0.113285025811966,0.4825928058605203,251.8912256420113
92,0.092,0.1148600146623632,0.4872576829921715,254.3213565853778
93,0.093,0.1166159445569057,0.4918982223004199,256.7384773956308
94,0.094,0.1182881927466267,0.4965112016682946,259.14166404823703
95,0.095,0.1198992049144586,0.5010989844569873,261.5312074856299
96,0.096,0.121414088531133,0.5056614313033241,263.9076126327225
97,0.097,0.1230864934042844,0.5101902676981833,266.26687205212266
98,0.098,0.1247994675509101,0.5146932777509535,268.6120165802332
99,0.099,0.1264003666893574,0.519178355141746,270.94701281903684
100,0.1,0.1279934375055911,0.5236359129009341,273.2678396391866
