,strain [1],vMdamFac,vonMisesdamind,stress [MPa]
0,0.0,0.0,0.0,0.0
1,0.001,0.0,0.003860880639371,2.0207803103927557
2,0.002,0.0,0.007721761278742,4.041560620785514
3,0.003,0.0,0.011582641918113,6.062340931178259
4,0.004,0.0,0.015443522557484,8.083121241571028
5,0.005,0.0,0.019304403196855,10.103901551963776
6,0.006,0.0,0.023165283836226,12.124681862356516
7,0.007,0.0,0.027026164475597,14.145462172749298
8,0.008,0.0,0.0308870451149681,16.16624248314206
9,0.009,0.0,0.0347479257543391,18.187022793534823
10,0.01,0.0,0.0386088063937102,20.20780310392755
11,0.011,0.0,0.0424696870330812,22.228583414320287
12,0.012,0.0,0.0463305676724521,24.24936372471303
13,0.013,0.0,0.0501914483118233,26.270144035105883
14,0.014,0.0,0.0540523289511941,28.29092434549859
15,0.015,0.0,0.0579132095905651,30.31170465589133
16,0.016,0.0,0.0617740902299363,32.33248496628413
17,0.017,0.0,0.0656349708693072,34.35326527667681
18,0.018,1.4766191082985917e-06,0.0694958515086783,36.37404558706963
19,0.019,4.731765464493017e-06,0.0733567321480492,38.39482589746247
20,0.02,2.1139395674117194e-05,0.0772176127874204,40.41560620785509
21,0.021,6.112516178951943e-05,0.0810784934267913,42.43638651824788
22,0.022,0.00017105643439969191,0.0849393740661624,44.45716682864058
23,0.023,0.00045281440362407926,0.0888002547055331,46.477947139033326
24,0.024,0.0006773024072675515,0.0926611353449043,48.498727449426056
25,0.025,0.000935655741090066,0.0965220159842752,50.519507759818765
26,0.026,0.0011423817399388,0.1003828966236466,52.54028807021179
27,0.027,0.0014558368358571,0.1042437772630173,54.56106838060445
28,0.028,0.0018346999529541,0.1081046579023885,56.581848690997184
29,0.029,0.002222260661515,0.1119655385417593,58.60262900138994
30,0.03,0.0025918053654267,0.1158264191811302,60.62340931178268
31,0.031,0.0030879719426174,0.1196872998205015,62.64418962217538
32,0.032,0.0035198277968987,0.1235481804598726,64.6649699325682
33,0.033,0.0039210823888593,0.1274090610992434,66.68575024296085
34,0.034,0.0045210748648096,0.1312699417386146,68.70653055335364
35,0.035,0.0050949329971618,0.1351308223779861,70.72731086374651
36,0.036,0.005915528431396,0.1389917030173566,72.74809117413925
37,0.037,0.0066325509216786,0.1428525836567276,74.7688714845319
38,0.038,0.0073947257713918,0.1467134642960987,76.78965179492492
39,0.039,0.0083338665825855,0.1505743449354694,78.81043210531752
40,0.04,0.0094862625835138,0.1544352255748409,80.83121241571017
41,0.041,0.0106991280549929,0.1582961062142114,82.85199272610303
42,0.042,0.0118966021758086,0.1621569868535828,84.87277303649576
43,0.043,0.0131091331994782,0.1660178674929535,86.89355334688844
44,0.044,0.0144578922763984,0.1698787481323249,88.91433365728116
45,0.045,0.0158051810648407,0.173739628771696,90.93511396767391
46,0.046,0.0172696852578916,0.1776005094110661,92.9558942780667
47,0.047,0.0185872490197465,0.1814613900504374,94.97667458845936
48,0.048,0.0198760375880882,0.1853222706898087,96.99745489885203
49,0.049,0.0210625814278602,0.1891831513291797,99.01823520924499
50,0.05,0.0222456954096881,0.1930440319685505,101.03901551963764
51,0.051,0.0234166165886492,0.1969049126079217,103.05979583003037
52,0.052,0.0245996996108438,0.2007657932472931,105.08057614042357
53,0.053,0.025829671022627,0.2046266738866635,107.10135645081607
54,0.054,0.0270215228570978,0.2084875545260346,109.12213676120896
55,0.055,0.0281719431653763,0.2123484351654064,111.14291707160164
56,0.056,0.0296030740220811,0.2162093158047768,113.16369738199438
57,0.057,0.0309410249945427,0.2200701964441482,115.18447769238712
58,0.058,0.0323880055967331,0.2239310150306334,117.2052182933774
59,0.059,0.0340208801932863,0.2277917676202584,119.22591665827574
60,0.06,0.035493442825304,0.2316524646380203,121.24657728660429
61,0.061,0.037085303801001,0.2355129689131017,123.26710941067047
62,0.062,0.0385725472289187,0.2393733164852291,125.28753105968588
63,0.063,0.0398744618256921,0.2432336380898731,127.30794815128935
64,0.064,0.0411252921986571,0.2470936109779607,129.3281799453293
65,0.065,0.0425676132987621,0.250952932691387,131.34797825029486
66,0.066,0.0438507008141956,0.2548110836408069,133.36710496305855
67,0.067,0.045187036170678,0.2586681471699596,135.38561494593256
68,0.068,0.0465752511930919,0.2625234252897775,137.40304399130324
69,0.069,0.0479481007091625,0.2663767607247691,139.41939344235436
70,0.07,0.0493849914602109,0.2702282653883671,141.43483701617532
71,0.071,0.0508589119652375,0.2740768697922819,143.44863593251344
72,0.072,0.0521855148025455,0.2779200949888193,145.45942795184726
73,0.073,0.0536553193844509,0.2817584559512145,147.46754283577377
74,0.074,0.0551622947268594,0.2855902913567401,149.47185944310246
75,0.075,0.0564822409578092,0.2894137358108267,151.47154771016665
76,0.076,0.0577923894635034,0.2932242898520024,153.46481939122944
77,0.077,0.059353490029412,0.2970204418062459,155.45117512099085
78,0.078,0.0608548365126718,0.3008060500108456,157.432249341543
79,0.079,0.0622171344431903,0.3045821770899372,159.40843405784364
80,0.08,0.063544413018529,0.3083538601575427,161.38208619212662
81,0.081,0.0649072278812108,0.3121198970298342,163.35245404421497
82,0.082,0.0663663258328902,0.3158841590664138,165.32140612410402
83,0.083,0.0678929950121114,0.3196467110473618,167.288323047407
84,0.084,0.0692380735020889,0.3234022729522073,169.25075458649349
85,0.085,0.070572458315347,0.3271517527962689,171.20942530949225
86,0.086,0.0717045667358718,0.3308947848926455,173.16467966470395
87,0.087,0.0732121867845188,0.3346307257657416,175.11626321044406
88,0.088,0.0747841161861603,0.3383602263493797,177.0642340628945
89,0.089,0.0763220376785227,0.3420789918733163,179.00688277371748
90,0.09,0.0778538702456144,0.3457900641924813,180.9457202682288
91,0.091,0.0793554618776031,0.3494854621429464,182.8767542601025
92,0.092,0.0807902998688897,0.3531727760132446,184.80358377372875
93,0.093,0.0821957780333943,0.3568460132160203,186.72358517645785
94,0.094,0.0835640986796226,0.3605071808349954,188.6373371343963
95,0.095,0.0852065630271237,0.3641574096711252,190.54523318636896
96,0.096,0.0866831642707105,0.367800342447926,192.44853981086524
97,0.097,0.0880647996661604,0.3714333493618049,194.34606056929596
98,0.098,0.0896318128117706,0.3750569341157537,196.2387550575338
99,0.099,0.0909970142382436,0.378669390665654,198.1247639057193
100,0.1,0.0923039776141703,0.382268016679389,200.00308381858653
