,strain [1],vMdamFac,vonMisesdamind,stress [MPa]
0,0.0,0.0,0.0,0.0
1,0.001,0.0,0.0130453032869167,6.802084341046753
2,0.002,0.0,0.0260906065738335,13.604168682093512
3,0.003,0.0,0.0391359098607503,20.406253023140334
4,0.004,0.0,0.0521812131476671,27.208337364187024
5,0.005,0.0,0.0652265164345838,34.01042170523377
6,0.006,3.1386476594769677e-06,0.0782718197215007,40.81250604628066
7,0.007,2.924994844136932e-05,0.0913171230084174,47.61459038732738
8,0.008,8.239146355309762e-05,0.1043624262953342,54.41667472837403
9,0.009,0.0001879703558332764,0.1174077295822508,61.218759069420834
10,0.01,0.0004284127140599738,0.1304530328691678,68.02084341046756
11,0.011,0.0008214277888734464,0.1434983361560846,74.82292775151427
12,0.012,0.0017889251851946,0.1565436394430014,81.62501209256133
13,0.013,0.0034946666750087,0.1695889427299179,88.42709643360777
14,0.014,0.0057612415999621,0.1826342460168349,95.22918077465471
15,0.015,0.0087563599874484,0.1956795493037514,102.03126511570132
16,0.016,0.0129675698837166,0.2087248525906685,108.8333494567481
17,0.017,0.0158577062728383,0.2217701558775855,115.63543379779492
18,0.018,0.0184739844134727,0.2348152103194292,122.43735457103232
19,0.019,0.0208136776051309,0.247859790483666,129.23896152111777
20,0.02,0.0231064133809559,0.2609035209510411,136.03998808155143
21,0.021,0.0254440626022099,0.2739464633597214,142.84061496077632
22,0.022,0.0277352276786271,0.2869879860809519,149.64034253078836
23,0.023,0.0300473424140554,0.3000254341659857,156.43756802472652
24,0.024,0.0323715693694952,0.3130574102692339,163.231921692158
25,0.025,0.0350515532718503,0.326087692229788,170.02513618867684
26,0.026,0.0381020500813302,0.3391127657624126,176.8156107361363
27,0.027,0.0411216390349844,0.352131724579059,183.6026044521519
28,0.028,0.044443962937919,0.3651461004713591,190.3868504210725
29,0.029,0.0478430809597805,0.3781484902631975,197.1647895327182
30,0.03,0.0517969791776646,0.3911399687875783,203.9372108702944
31,0.031,0.0558162117161432,0.4041276057756738,210.70738494675078
32,0.032,0.0603660300635953,0.4170992843043815,217.46885782215062
33,0.033,0.0650275770885722,0.4300489990153193,224.21885233590953
34,0.034,0.069859205502252,0.4429768372700023,230.956966305975
35,0.035,0.0751890747853115,0.4558904541091287,237.68667162571808
36,0.036,0.081079134367794,0.4687818559051474,244.40353202912877
37,0.037,0.0873239264439338,0.4816419854791939,251.10317848804536
38,0.038,0.0939030321207704,0.4944729771380667,257.7862503029031
39,0.039,0.1009664427953787,0.5072546626351406,264.4424993072228
40,0.04,0.1079616125471906,0.5199625956354645,271.0583298226581
41,0.041,0.1148587240327795,0.532581962016816,277.6260497323416
42,0.042,0.1220867565351667,0.5451363960801296,284.156631510291
43,0.043,0.1291999144599055,0.5575985998337442,290.6400301587764
44,0.044,0.1364142251623504,0.569960864703254,297.07742780753773
45,0.045,0.1434100206016453,0.5822278857865956,303.46557648840803
46,0.046,0.1504745521279395,0.594406975785526,309.80571757979897
47,0.047,0.1579767478323955,0.6064985622848239,316.10000939018664
48,0.048,0.1651050106924022,0.6184502363272715,322.32149890737844
49,0.049,0.172648633876273,0.6303160274876751,328.49776191488854
50,0.05,0.1797216846070969,0.6420294453198243,334.5915760829703
51,0.051,0.1868031138886515,0.6536349193765216,340.63117697763005
52,0.052,0.1942109406742838,0.6651001549330303,346.5931867927415
53,0.053,0.2015156121826021,0.6764294183065026,352.4822823687592
54,0.054,0.2086006363803723,0.6875396647993549,358.2591764800573
55,0.055,0.2158471871684761,0.6983987376556434,363.90600502638114
56,0.056,0.2227580299666663,0.7093149291610097,369.5881088450126
57,0.057,0.229978676805112,0.7201194509975819,375.21149676701697
58,0.058,0.2364832488312359,0.7306955311168444,380.7153473598812
59,0.059,0.2427800976916934,0.7409283558255578,386.0382231424955
60,0.06,0.2492499917173042,0.7513497483039914,391.4606953906577
61,0.061,0.2552836378331783,0.761668802467671,396.8314595070505
62,0.062,0.2616481409431292,0.7718780870915719,402.14438781706417
63,0.063,0.2676064299569777,0.7819421907324294,407.38050135339057
64,0.064,0.2736986842491549,0.7918693036582239,412.5443479239
65,0.065,0.2795624824883091,0.801682903051133,417.64901124601863
66,0.066,0.285655624990442,0.8113814011612497,422.69322458739754
67,0.067,0.2914172310323179,0.8209615324703985,427.674509026028
68,0.068,0.2969593202506439,0.8304000151146472,432.584476387727
69,0.069,0.3020426829450288,0.8397063670328421,437.425495485274
70,0.07,0.307182853631226,0.8488799097810714,442.19815143663135
71,0.071,0.3121608285555787,0.8579072873087541,446.8947708327128
72,0.072,0.3168212395077661,0.8667807883369346,451.5108332975791
73,0.073,0.3215276064211825,0.8755045702020843,456.0486838025584
74,0.074,0.3262100931843448,0.8840824051356581,460.51065874060737
75,0.075,0.330734172668428,0.8925241212769047,464.9023303930037
76,0.076,0.3348969757781868,0.9008209222012752,469.2178943517372
77,0.077,0.3388167419969993,0.9089490675442458,473.44643279877846
78,0.078,0.3427800812017839,0.9169178342635724,477.5926779601535
79,0.079,0.3464874813110461,0.9247541878403874,481.6692518677444
80,0.08,0.350237015299197,0.9324601475171532,485.6777915464646
81,0.081,0.3538137211668701,0.9400345272098788,489.6176194357031
82,0.082,0.3573579125590105,0.9474877299254442,493.49510822933865
83,0.083,0.3607701592433603,0.9548284990179464,497.3130669616543
84,0.084,0.3639536321187339,0.9620602375544224,501.0737445038502
85,0.085,0.3673769780910781,0.9691825493105344,504.77716040396535
86,0.086,0.3706557832619467,0.9761937907205838,508.4230552198609
87,0.087,0.3737086545728603,0.9830727448697194,512.0003818636222
88,0.088,0.3767131060708548,0.9898317417938908,515.515599521671
89,0.089,0.3797246289803914,0.9965003092969568,518.9837882814597
90,0.09,0.3825842162159196,1.003075001807598,522.4037064815653
91,0.091,0.3851638188250875,1.0095691948652632,525.7825670668361
92,0.092,0.3877535020219406,1.015968050432712,529.1119385857415
93,0.093,0.3904696489717975,1.0222814284871249,532.3971407609372
94,0.094,0.3933467425368203,1.0285158855396257,535.6413634396221
95,0.095,0.3961973251959833,1.0347392451676276,538.8801701667336
96,0.096,0.3991799026555586,1.0409356766845954,542.1047678101093
97,0.097,0.4017777606229326,1.046771580635324,545.1424549936575
98,0.098,0.4043520792607269,1.052811680425194,548.2864744911094
99,0.099,0.4069188658087731,1.0587785284251243,551.3927290294755
100,0.1,0.4093200600276782,1.0646608039489855,554.4543922572487
