,strain [1],vMdamFac,vonMisesdamind,stress [MPa]
0,0.0,0.0,0.0,0.0
1,0.001,0.0,0.0029754217994893,1.558401489471353
2,0.002,0.0,0.0059508435989787,3.116802978942706
3,0.003,0.0,0.0089262653984681,4.675204468414068
4,0.004,0.0,0.0119016871979574,6.233605957885421
5,0.005,0.0,0.0148771089974468,7.792007447356781
6,0.006,0.0,0.0178525307969362,9.350408936828133
7,0.007,0.0,0.0208279525964256,10.908810426299464
8,0.008,0.0,0.0238033743959149,12.467211915770823
9,0.009,0.0,0.0267787961954044,14.025613405242222
10,0.01,0.0,0.0297542179948937,15.584014894713556
11,0.011,0.0,0.0327296397943831,17.142416384184866
12,0.012,0.0,0.0357050615938725,18.70081787365627
13,0.013,0.0,0.0386804833933619,20.25921936312763
14,0.014,0.0,0.0416559051928512,21.817620852598925
15,0.015,0.0,0.0446313269923406,23.37602234207031
16,0.016,0.0,0.0476067487918299,24.93442383154169
17,0.017,0.0,0.0505821705913195,26.492825321013107
18,0.018,0.0,0.0535575923908088,28.051226810484433
19,0.019,3.5933804685877465e-06,0.0565330141902981,29.609628299955716
20,0.02,8.050483629713201e-06,0.0595084359897875,31.16802978942713
21,0.021,1.95385655586406e-05,0.0624838577892769,32.7264312788985
22,0.022,5.134516951342689e-05,0.0654592795887663,34.284832768369725
23,0.023,0.0001108985739802786,0.0684347013882559,35.843234257841075
24,0.024,0.00030902030009139235,0.0714101231877449,37.40163574731253
25,0.025,0.0004824814621324381,0.0743855449872343,38.96003723678388
26,0.026,0.0006438318724479791,0.0773609667867238,40.51843872625524
27,0.027,0.0008547569145533566,0.0803363885862131,42.07684021572651
28,0.028,0.0010452131467951,0.0833118103857025,43.63524170519785
29,0.029,0.0012682750981327,0.0862872321851919,45.19364319466941
30,0.03,0.0015036709364085,0.0892626539846813,46.75204468414066
31,0.031,0.0018529764402321,0.0922380757841707,48.310446173611936
32,0.032,0.0022452828419436,0.0952134975836598,49.86884766308331
33,0.033,0.0025032740112266,0.0981889193831497,51.427249152554715
34,0.034,0.002822970262974,0.101164341182639,52.985650642026194
35,0.035,0.0031742221542926,0.1041397629821284,54.544052131497594
36,0.036,0.0034896630754457,0.1071151847816177,56.10245362096883
37,0.037,0.0039574461215512,0.110090606581107,57.66085511043996
38,0.038,0.0044467091435534,0.1130660283805963,59.21925659991146
39,0.039,0.0049170225431881,0.1160414501800855,60.77765808938284
40,0.04,0.005539411637125,0.1190168719795753,62.33605957885425
41,0.041,0.0061342431302871,0.1219922937790642,63.894461068325406
42,0.042,0.006954489730875,0.1249677155785539,65.452862557797
43,0.043,0.0078528147060203,0.1279431373780438,67.0112640472684
44,0.044,0.008661127669805,0.1309185591775327,68.56966553673941
45,0.045,0.0094940075056964,0.133893980977022,70.12806702621094
46,0.046,0.0104001220066507,0.1368694027765117,71.68646851568221
47,0.047,0.0114964850350243,0.1398448245760006,73.24487000515357
48,0.048,0.0124622652174201,0.1428202463754901,74.80327149462502
49,0.049,0.0134436048642528,0.1457956681749795,76.36167298409659
50,0.05,0.0144188748863413,0.1487710899744689,77.9200744735677
51,0.051,0.015279545214447,0.1517465117739583,79.47847596303868
52,0.052,0.0162646864138047,0.1547219335734478,81.03687745251045
53,0.053,0.0173969617626163,0.1576973553729373,82.59527894198158
54,0.054,0.0184387848957779,0.1606727771724262,84.15368043145303
55,0.055,0.0194327464798947,0.1636481989719156,85.71208192092462
56,0.056,0.0204691418460227,0.1666236207714052,87.27048341039571
57,0.057,0.0215974490744706,0.1695990425708947,88.82888489986735
58,0.058,0.0226373278058627,0.1725744643703838,90.3872863893389
59,0.059,0.0235389124430013,0.1755498861698735,91.94568787880995
60,0.06,0.0245674158480712,0.1785253079693626,93.50408936828131
61,0.061,0.0255014654359205,0.1815007297688522,95.06249085775251
62,0.062,0.0265606135617649,0.1844761151290318,96.62086791334742
63,0.063,0.0276421978310534,0.1874513256900238,98.17912887524344
64,0.064,0.0286906517393708,0.1904261002412534,99.7370945727181
65,0.065,0.0297459446626408,0.1934007202130133,101.29495893058854
66,0.066,0.0308978357311747,0.1963752119124394,102.85273873968796
67,0.067,0.0320398795583809,0.1993491749374412,104.41018803880311
68,0.068,0.0330564109853247,0.2023224519372126,105.9671944429049
69,0.069,0.0339620187896859,0.2052951510416727,107.52388199058264
70,0.07,0.0350917042523554,0.2082672350707136,109.08018329107823
71,0.071,0.0361708339916298,0.2112386299969574,110.63606672384807
72,0.072,0.0372359365793896,0.2142086822517316,112.19116799780885
73,0.073,0.0383887196615251,0.2171762649531801,113.74488822234765
74,0.074,0.0395119376641628,0.220142499672144,115.29775187861851
75,0.075,0.0407095296219512,0.223105868184408,116.8490679200543
76,0.076,0.0418473710145559,0.2260664759843504,118.39879736805376
77,0.077,0.0428650235965716,0.2290248906539575,119.94729682991908
78,0.078,0.0439180894024419,0.231979116726192,121.49353519890647
79,0.079,0.0449700313120915,0.2349242965898072,123.03504879292635
80,0.08,0.0458934266280592,0.2378598565839624,124.57178149205504
81,0.081,0.0469821573306461,0.2407848822279478,126.10308989626635
82,0.082,0.0481333427552859,0.2437005037341993,127.62965745404597
83,0.083,0.0491088973519723,0.2466126537003896,129.15417419375828
84,0.084,0.050294518055172,0.2495228046733433,130.6774515269769
85,0.085,0.0513512900254163,0.252431553122483,132.1995864891832
86,0.086,0.0525217670738352,0.2553367137266529,133.71969174907906
87,0.087,0.0536886423818875,0.2582368849083218,135.23678793796742
88,0.088,0.0548665425008368,0.2611317978231577,136.7507142802213
89,0.089,0.0560357924894078,0.2640247193303185,138.26306717949754
90,0.09,0.057299627834427,0.2669129808414563,139.7730600600173
91,0.091,0.0586163871849947,0.2697925909556193,141.27862424034262
92,0.092,0.0598352307107451,0.2726656279266349,142.7807563431029
93,0.093,0.0609346125029191,0.2755353525853478,144.28099628144332
94,0.094,0.062044572727056,0.2783976283261093,145.77737785103454
95,0.095,0.0632861731636504,0.2812529025705711,147.27029030691108
96,0.096,0.0646043335674373,0.2841032153360551,148.76081239013672
97,0.097,0.0659094019297593,0.2869398384013661,150.24414731774084
98,0.098,0.0670998219839854,0.2897736965762149,151.72614260760133
99,0.099,0.0682594773261701,0.2926004697467519,153.20434518904665
100,0.1,0.0695345738501079,0.295418336035894,154.67779225749328
