,strain [1],vMdamFac,vonMisesdamind,stress [MPa]
0,0.0,0.0,0.0,0.0
1,0.0005,0.0,0.0125438696617358,6.525548698495343
2,0.001,0.0,0.0250877393234717,13.051097396990684
3,0.0015,0.0,0.0376316089852074,19.57664609548604
4,0.002,0.0,0.0501754786469434,26.102194793981376
5,0.0025,0.0,0.0627193483086791,32.62774349247656
6,0.003,3.074209906983264e-07,0.0752632179704149,39.15329219097208
7,0.0035,4.910889497973105e-06,0.0878070876321508,45.67884088946745
8,0.004,5.699421011563228e-05,0.1003509572938868,52.20438958796276
9,0.0045,0.0009432690506172888,0.1128948269556228,58.729938286458044
10,0.005,0.0085043268970972,0.1254386966173582,65.25548698495311
11,0.0055,0.010905910369034,0.137982566279094,71.78103568344868
12,0.006,0.0130482312694148,0.1505264359408297,78.30658438194418
13,0.0065,0.0143931411359622,0.1630703056025655,84.83213308043952
14,0.007,0.0161680731181696,0.1756141752643016,91.35768177893492
15,0.0075,0.0182768324307468,0.1881580449260374,97.88323047742993
16,0.008,0.0205190509561477,0.2007019145877737,104.40877917592552
17,0.0085,0.0223901076258501,0.2132457842495098,110.93432787442072
18,0.009,0.0250201725670841,0.2257896539112456,117.45987657291619
19,0.0095,0.027630649819259,0.2383335235729818,123.98542527141143
20,0.01,0.0301319165003321,0.2508773912975923,130.51096573830924
21,0.0105,0.0334396099144289,0.2634211928360386,137.0363702798656
22,0.011,0.0372014689044581,0.2759649505511883,143.5616873124714
23,0.0115,0.0414037774126724,0.2885087135714764,150.08701378446258
24,0.012,0.0465991630880624,0.301052365373626,156.6121255080665
25,0.0125,0.0513032263500417,0.3135957018118711,163.13694192408195
26,0.013,0.055798858747857,0.3261369657605843,169.6603310471545
27,0.0135,0.0598419012792086,0.3386718197001866,176.17896660209797
28,0.014,0.063887440532331,0.3511860303006074,182.6863328366802
29,0.0145,0.0674167264048514,0.3636453711605872,189.1639867957732
30,0.015,0.0710104625546037,0.3759270914009924,195.55148467409143
31,0.0155,0.0743113155597308,0.3875040830353907,201.56267566677533
32,0.016,0.0767270326433331,0.3950339780162222,205.470096853242
33,0.0165,0.0795413425251549,0.4043250277045283,210.29911607490686
34,0.017,0.0824810412578192,0.4139415660555213,215.29944340739797
35,0.0175,0.0854383781657922,0.4232747536859242,220.14742999415182
36,0.018,0.0884503637606795,0.4322567637917752,224.81193659331876
37,0.0185,0.0913633582668215,0.4407270866384365,229.20681998618647
38,0.019,0.0941218441961849,0.4485210965808008,233.2483273109175
39,0.0195,0.0969965133127806,0.455618640649034,236.92692570918197
40,0.02,0.099516874068308,0.4622227830997687,240.35454409654142
41,0.0205,0.1017610985477319,0.4678279466873846,243.2720154835316
42,0.021,0.1038018560664818,0.4727394630941197,245.83178333732087
43,0.0215,0.10544160716629,0.4771053724931073,248.1070552222248
44,0.022,0.1071594715637599,0.4811067552541201,250.1899058641836
45,0.0225,0.1085451002303058,0.4845095679659085,251.9604978045364
46,0.023,0.1099226461116755,0.487475874385967,253.50208895446315
47,0.0235,0.1110781035970682,0.4899987432859085,254.8128687377175
48,0.024,0.1121324319131278,0.4922563870002329,255.98528824116727
49,0.0245,0.1131047687244043,0.4944538702278251,257.12521961443326
50,0.025,0.1138486939880454,0.496234169613,258.0490514565282
51,0.0255,0.1143146298467535,0.4972854973858578,258.59436161597114
52,0.026,0.1147075039481211,0.4979593699867827,258.94338179276974
53,0.0265,0.1149211926434785,0.4984563039273086,259.2006416592492
54,0.027,0.1150928371750868,0.4988306908202239,259.39423197950777
55,0.0275,0.1152107899247758,0.49912351693077,259.54576075381
56,0.028,0.1153347670722476,0.4993691352980275,259.6729468985949
57,0.0285,0.1154162204516925,0.4995786042630212,259.7813198297392
58,0.029,0.1155298466127947,0.4997575279852785,259.8736268749196
59,0.0295,0.1156203884724634,0.4999144130637334,259.9543478661889
60,0.03,0.1156782716347452,0.5000476160420393,260.0228042126749
61,0.0305,0.1157293898764483,0.500162317983352,260.0815607436614
62,0.031,0.1157794885567851,0.5002621437275149,260.13264713176693
63,0.0315,0.1158419064293754,0.5003520606881823,260.17871396971066
64,0.032,0.1158868742557033,0.5004331631313353,260.22027191229523
65,0.0325,0.1159257486332416,0.5005052091733919,260.2571349255916
66,0.033,0.1159572044762852,0.5005707080193059,260.290683714354
67,0.0335,0.1159915472372043,0.5006308515268361,260.3214645661421
68,0.034,0.1160120219214224,0.5006852975557836,260.3492773865275
69,0.0345,0.1160322374529567,0.500735249071206,260.3747841119536
70,0.035,0.116050277119298,0.500782091390492,260.39869161047824
71,0.0355,0.1160658052680932,0.5008255926237901,260.4209186714781
72,0.036,0.1160947132464386,0.500865790988162,260.4414896688863
73,0.0365,0.1161227795138037,0.5009034063904481,260.4607785842361
74,0.037,0.1161300519040763,0.5009383912553106,260.4787360339349
75,0.0375,0.1161389482486092,0.5009716723268388,260.4957298104306
76,0.038,0.1161421793360483,0.5010036348149558,260.5120763518286
77,0.0385,0.1161540885218558,0.5010341155106276,260.5276754422437
78,0.039,0.1161685543382347,0.5010641082425019,260.54296152529804
79,0.0395,0.1161888456132062,0.5010931306483385,260.55773723647087
80,0.04,0.1162174961200015,0.5011208395135786,260.5718257378271
81,0.0405,0.1162346555291364,0.5011476515299634,260.5854671538712
82,0.041,0.1162477934693802,0.5011733651183292,260.59852768145475
83,0.0415,0.1162578008981008,0.5011979486914242,260.6110007304729
84,0.042,0.1162690227757829,0.5012216574855402,260.623028089973
85,0.0425,0.1162743672708456,0.5012443971821273,260.63457509754545
86,0.043,0.1162892013039394,0.5012664344468771,260.6457432852637
87,0.0435,0.1162922881707307,0.5012876211881763,260.6564697113685
88,0.044,0.1163035636960764,0.5013079376782196,260.6667657793305
89,0.0445,0.1163066370577404,0.501327761376223,260.6768134629026
90,0.045,0.1163100825929319,0.5013469970234647,260.6865437776523
91,0.0455,0.1163249753777529,0.5013656328713804,260.6959536016585
92,0.046,0.1163283287628036,0.5013837281348956,260.7050950074144
93,0.0465,0.1163403845116194,0.5014011619442296,260.7139107772555
94,0.047,0.1163579879999312,0.501418065793787,260.72246316312237
95,0.0475,0.1163593683372952,0.5014345233028483,260.73080275512143
96,0.048,0.116360014983381,0.501450510568955,260.73891647716613
97,0.0485,0.1163693475313157,0.5014661918397968,260.74686953819537
98,0.049,0.116376400588761,0.5014815558197544,260.7546619255737
99,0.0495,0.1163814022030903,0.5014965275470131,260.76227704305626
100,0.05,0.1164055745435226,0.5015111208762538,260.76970780996254
101,0.0505,0.1164156894238916,0.501525423284183,260.77700796539756
102,0.051,0.1164256956799294,0.5015394069072219,260.78415163785655
103,0.0515,0.1164310036981626,0.5015531808838091,260.7911967626134
104,0.052,0.1164395234263864,0.5015666981254613,260.7981066428558
105,0.0525,0.1164395234263864,0.501579940284022,260.80488789673154
106,0.053,0.1164424266826325,0.5015928761952859,260.8115171360708
107,0.0535,0.1164421213769696,0.5016055997965089,260.8180409878612
108,0.054,0.1164461869581509,0.5016181493621503,260.8244757335257
109,0.0545,0.1164528462601956,0.5016305252361652,260.8308188260571
110,0.055,0.1164629323642618,0.5016427293914408,260.83707840110907
111,0.0555,0.11646847971415,0.5016547864697924,260.84325405036884
112,0.056,0.1164744073751302,0.5016666781923017,260.84931463688406
113,0.0565,0.1164756957432843,0.5016784114102196,260.85528403078837
114,0.057,0.116486447957575,0.5016897858086249,260.86107333572136
115,0.0575,0.1164884148013426,0.5017012192052754,260.86690364979745
116,0.058,0.1164940445640575,0.501712231782457,260.87250255298716
117,0.0585,0.1165008620489161,0.5017232494560575,260.8781128557065
118,0.059,0.1165008620489161,0.5017340198195549,260.883590151465
119,0.0595,0.1165019795014097,0.5017446643567045,260.8889928007433
120,0.06,0.1165058521329842,0.5017550840948136,260.89427243968134
121,0.0605,0.1165124424002599,0.5017654782196246,260.8995341979222
122,0.061,0.1165137477107418,0.5017756935822113,260.9047034134564
123,0.0615,0.1165246037016007,0.5017857615280796,260.90979557025736
124,0.062,0.1165264917648224,0.5017956582660715,260.9148051735617
125,0.0625,0.1165258244265549,0.5018055964161967,260.91982375189843
126,0.063,0.1165327071003733,0.5018152865303284,260.92472266435936
127,0.0635,0.1165339341797454,0.5018249274260876,260.9295985935882
128,0.064,0.1165371607283295,0.5018343502670537,260.93436072691736
129,0.0645,0.1165377289782926,0.5018438465180726,260.9391478646277
130,0.065,0.1165377289782926,0.5018531859428487,260.9438586434511
131,0.0655,0.1165475028738719,0.5018623745855512,260.9484870753757
132,0.066,0.1165509135246045,0.5018714530089842,260.95306987272704
133,0.0665,0.1165509135246045,0.5018804137474241,260.9575984731135
134,0.067,0.1165527707553226,0.5018892738504547,260.962075314297
135,0.0675,0.1165576587572261,0.501898047177295,260.96650150944146
136,0.068,0.1165576587572261,0.501906678803147,260.9708596762491
137,0.0685,0.1165619482444383,0.5019153441094868,260.9752341607986
138,0.069,0.1165620442932797,0.501923877147302,260.97954113598803
139,0.0695,0.116567912678331,0.5019322869080973,260.9837480372268
140,0.07,0.1165680678790802,0.5019406175072568,260.9879346432492
141,0.0705,0.1165746328526017,0.5019488718371524,260.9920814927017
142,0.071,0.1165749709283071,0.5019569191038435,260.9961293866204
143,0.0715,0.1165760611628925,0.5019650819763577,261.0002399069744
144,0.072,0.1165760611628925,0.501973108548622,261.0042753283018
145,0.0725,0.1165880806849292,0.5019810460964483,261.00825306994375
146,0.073,0.1165890459149406,0.5019889134271894,261.0121877700229
147,0.0735,0.1165924973196189,0.5019966991374887,261.0160759817128
148,0.074,0.1165943445862914,0.5020044151752447,261.0199214914627
149,0.0745,0.1166001625029048,0.5020120739243388,261.0237427153632
150,0.075,0.1166062334710191,0.5020196829094967,261.02753354882447
151,0.0755,0.1166074320066556,0.502027232735218,261.0312905605368
152,0.076,0.1166105805951555,0.502034711574356,261.03501791590685
153,0.0765,0.1166197368400563,0.502042111718448,261.03870383649013
154,0.077,0.1166198030616212,0.502049420472092,261.0423494178947
155,0.0775,0.1166267580973043,0.5020566297073948,261.04594594807264
156,0.078,0.1166362843629107,0.5020638582415995,261.04954383190005
157,0.0785,0.1166387948614111,0.5020710894007789,261.05314275590007
158,0.079,0.1166387948614111,0.5020781874183106,261.05666659182793
159,0.0795,0.1166387948614111,0.5020852259740838,261.060158649223
160,0.08,0.116647446355367,0.5020922776228067,261.06366058319355
161,0.0805,0.1166476054022557,0.5020991927401445,261.067098862142
162,0.081,0.1166528566833468,0.5021059942897864,261.0704842567577
163,0.0815,0.1166565283125573,0.5021127527271803,261.07384837254483
164,0.082,0.1166570021724428,0.5021195080285864,261.07720979691084
165,0.0825,0.1166553517805363,0.5021261099795493,261.08050095868003
166,0.083,0.1166607152782446,0.502132725830661,261.08380058687993
167,0.0835,0.1166607152782446,0.502139218742648,261.08703385982074
168,0.084,0.1166607152782446,0.5021457270202274,261.0902738957996
169,0.0845,0.116665584700006,0.5021521742087458,261.0934806628453
170,0.085,0.116665584700006,0.5021586000138478,261.0966857807281
171,0.0855,0.1166660856382741,0.5021649870975936,261.0998746196354
172,0.086,0.1166641010600841,0.502171326006613,261.1030361572987
173,0.0865,0.1166688917437345,0.5021776256324009,261.1061694045149
174,0.087,0.1166688917437345,0.5021838893371758,261.1092917866931
175,0.0875,0.1166688917437345,0.5021901192647755,261.11240016111606
176,0.088,0.1166688970049987,0.5021962431567166,261.1154527068077
177,0.0885,0.1166688970049987,0.5022024495709834,261.11855692565973
178,0.089,0.1166690618401938,0.5022085625981346,261.12161434191995
179,0.0895,0.1166702253174914,0.5022146406626263,261.1246550519484
180,0.09,0.116675137280498,0.5022205326086235,261.127602169168
181,0.0905,0.116675137280498,0.5022266837436105,261.1306846804781
182,0.091,0.1166747528826111,0.5022326416685439,261.1336685797422
183,0.0915,0.1166747528826111,0.5022385632241221,261.1366396243781
184,0.092,0.1166772469426686,0.5022443750770983,261.13956539921753
185,0.0925,0.1166772469426686,0.5022502520595489,261.1425274686237
186,0.093,0.1166787892433967,0.5022560367287868,261.1454408187798
187,0.0935,0.1166793983037661,0.5022617872496431,261.14833658093943
188,0.094,0.1166805672470812,0.5022674894583933,261.1512077870987
189,0.0945,0.1166806725310695,0.5022731528303649,261.1540517372543
190,0.095,0.1166826378697051,0.5022787875816749,261.15687921668075
191,0.0955,0.1166847552421079,0.5022843094007986,261.1596531390621
192,0.096,0.1166849112344774,0.50228993767765,261.162478633001
193,0.0965,0.1166849112344774,0.5022954513237253,261.16524431779527
194,0.097,0.1166910523491591,0.5023009206615653,261.1679884245529
195,0.0975,0.1166911318538534,0.5023064900110319,261.1707826883586
196,0.098,0.1166932852439673,0.5023119595595925,261.1735307678355
197,0.0985,0.1166920776190245,0.5023173907146936,261.17626028644764
198,0.099,0.1166967541239312,0.5023226831727968,261.1789190304544
199,0.0995,0.1166969819343635,0.5023281876188609,261.18168739778764
200,0.1,0.1166969819343635,0.502333544851381,261.1843702320091
