,strain [1],vMdamFac,vonMisesdamind,stress [MPa]
0,0.0,0.0,0.0,0.0
1,0.001,0.0,0.0067033446408499,3.5031120333365733
2,0.002,0.0,0.0134066892816998,7.006224066673147
3,0.003,0.0,0.0201100339225498,10.509336100009712
4,0.004,0.0,0.0268133785633997,14.012448133346291
5,0.005,0.0,0.0335167232042497,17.515560166682906
6,0.006,0.0,0.0402200678450996,21.01867220001941
7,0.007,0.0,0.0469234124859496,24.52178423335613
8,0.008,1.0074983656807775e-06,0.0536267571267995,28.02489626669257
9,0.009,7.893203696349814e-06,0.0603301017676495,31.5280083000292
10,0.01,2.0962446065875548e-05,0.0670334464084994,35.031120333365834
11,0.011,4.855782251385231e-05,0.0737367910493494,38.5342323667024
12,0.012,7.546836359606866e-05,0.0804401356901993,42.03734440003883
13,0.013,9.762325062003264e-05,0.0871434803310491,45.540456433375475
14,0.014,0.00014728259953916012,0.0938468249718991,49.04356846671224
15,0.015,0.00021630975263322056,0.1005501696127491,52.54668050004857
16,0.016,0.0003010757809670712,0.107253514253599,56.04979253338514
17,0.017,0.0003961552533990768,0.1139568588944489,59.55290456672173
18,0.018,0.000513827525302783,0.1206602035352991,63.05601660005843
19,0.019,0.0006597851689174287,0.1273635481761491,66.55912863339495
20,0.02,0.000823948292946518,0.134066892816999,70.06224066673167
21,0.021,0.0010208933179231,0.1407702374578486,73.56535270006813
22,0.022,0.0012720543345643,0.1474735820986989,77.06846473340481
23,0.023,0.0016187446408162,0.1541769267395485,80.5715767667417
24,0.024,0.0020155346758941,0.1608802713803986,84.07468880007767
25,0.025,0.00249521243209,0.1675833910647328,87.57766267260678
26,0.026,0.0030546166846552,0.1742861917245526,91.08044043414795
27,0.027,0.0036825185500431,0.180988854486437,94.58313181690046
28,0.028,0.0044686338878466,0.1876912532287683,98.08567433475518
29,0.029,0.0052396028915602,0.1943917140847004,101.58716416178538
30,0.03,0.006105230026342,0.2010905966958971,105.08771281396784
31,0.031,0.006948806889571,0.2077892816437351,108.58805300483773
32,0.032,0.007943392478549,0.2144870239092167,112.08782627947303
33,0.033,0.0091448641511091,0.2211839311595507,115.58710006943235
34,0.034,0.0103564423722292,0.2278779473534386,119.08471031014028
35,0.035,0.0115083633150102,0.2345693083769176,122.58072448632532
36,0.036,0.0128706033490168,0.2412583924414482,126.07538499518692
37,0.037,0.0143289254520025,0.2479432494068619,129.5679170471862
38,0.038,0.0160011134763911,0.2546265336258619,133.0595550581045
39,0.039,0.017773367048891,0.2613075754955431,136.5500496380203
40,0.04,0.0196427266257776,0.2679866243514224,140.03945985884474
41,0.041,0.0218924256245066,0.2746644841461843,143.52806523858507
42,0.042,0.0239629279677302,0.2813409503280801,147.01585038028523
43,0.043,0.0263796629581889,0.2880145755678363,150.5020803132128
44,0.044,0.0288526197476626,0.2946848700198851,153.98675815552596
45,0.045,0.0315106209828141,0.301351694600226,157.4697047178883
46,0.046,0.0341365865423124,0.3080131712250735,160.9498780977678
47,0.047,0.0371736652489822,0.3146691090419951,164.4272398778946
48,0.048,0.0402616477023975,0.3213189318045208,167.90145135120065
49,0.049,0.043619539705034,0.3279637476134008,171.3729746866443
50,0.05,0.0467451821257061,0.334603963582275,174.84198505478082
51,0.051,0.0497759695331165,0.3412400667181722,178.30881765651404
52,0.052,0.0530170308925933,0.3478704536756294,181.77246837970296
53,0.053,0.0563331619511427,0.354494901551068,185.23284271590717
54,0.054,0.05955310257555,0.3611161615360534,188.69155718212605
55,0.055,0.0627802140477133,0.3677294392090763,192.1458912641461
56,0.056,0.0659705465886616,0.3743361644916753,195.5965065171613
57,0.057,0.0693006181575932,0.3809359468826805,199.04350335153302
58,0.058,0.0725788311494223,0.387531207668922,202.4879237260346
59,0.059,0.0757220606131154,0.3941185410229183,205.92800232750278
60,0.06,0.0789490435906838,0.4006972339936405,209.3633845990008
61,0.061,0.0825156422101531,0.4072715300476506,212.79619349333092
62,0.062,0.0862096631201672,0.4138392924387753,216.2255229549133
63,0.063,0.0895732485705056,0.4204042957103214,219.65315277137964
64,0.064,0.0931373709517672,0.4269604075217798,223.07632544834223
65,0.065,0.096660871218556,0.433507939813998,226.4947579490691
66,0.066,0.100142818587792,0.4400476526493865,229.90870112957958
67,0.067,0.1039484150197634,0.4465775315277112,233.31735909984607
68,0.068,0.1078912825661288,0.453099236579822,236.72174264993143
69,0.069,0.1116190455955493,0.4596108836803272,240.1208083245092
70,0.07,0.1155899012677242,0.4661156371998735,243.51617722162368
71,0.071,0.119629049485978,0.4726139177291438,246.90771275559058
72,0.072,0.1237555016784169,0.4791046503894521,250.2945621936163
73,0.073,0.1277538761392486,0.4855854117106842,253.6760555361991
74,0.074,0.1317240602827955,0.492053192762548,257.0508808361269
75,0.075,0.1356844263976503,0.498509647667494,260.4199400538061
76,0.076,0.1394637277096568,0.5049500004268416,263.7805904975776
77,0.077,0.1434353516878374,0.511370660550388,267.13079839089727
78,0.078,0.1471593006562075,0.5177803652822355,270.4748992897749
79,0.079,0.1511728617463821,0.5241794296820934,273.8131905784355
80,0.08,0.1550051806876243,0.5305643621217621,277.1435997527734
81,0.081,0.1586343656102121,0.5369345982852011,280.4664726835147
82,0.082,0.1621439062738207,0.5432883866812559,283.7809749495559
83,0.083,0.1657465033033786,0.5496304649157443,287.0891653896357
84,0.084,0.1695891155238058,0.555961875365954,290.3917979484177
85,0.085,0.1732948334783078,0.5622709850644902,293.6829216890001
86,0.086,0.1771075949340612,0.5685589791747564,296.96280905298244
87,0.087,0.1807229336210862,0.5748264478735804,300.2315202261076
88,0.088,0.1842191419399379,0.5810914866719676,303.49807096623863
89,0.089,0.1878276687566519,0.5873352325330462,306.75311768794626
90,0.09,0.1911834302079005,0.593557142930841,309.9966359729729
91,0.091,0.1948831321844367,0.5997645279160296,313.23282853087704
92,0.092,0.1983757841638247,0.6059544824623988,316.459576542916
93,0.093,0.2018465931525954,0.6121190093080454,319.6733490202752
94,0.094,0.2053905778416578,0.6182647719289909,322.87774962509803
95,0.095,0.2089080529302058,0.6241887571813716,325.96632046870286
96,0.096,0.2125792634234226,0.6302821094652874,329.1432877737696
97,0.097,0.2161793872498644,0.6363590574431697,332.311442774923
98,0.098,0.2196209698686282,0.6424182257635249,335.4702149246982
99,0.099,0.2231842857117075,0.6484585396891686,338.6192919167827
100,0.1,0.2266425376699193,0.654482961398882,341.75947861082966
