,strain [1],vMdamFac,vonMisesdamind,stress [MPa]
0,0.0,0.0,0.0,0.0
1,0.001,0.0,0.0077158031211192,4.033511487456184
2,0.002,0.0,0.0154316062422384,8.067022974912366
3,0.003,0.0,0.0231474093633575,12.100534462368568
4,0.004,0.0,0.0308632124844768,16.134045949824745
5,0.005,0.0,0.038579015605596,20.167557437280866
6,0.006,0.0,0.0462948187267151,24.201068924737136
7,0.007,0.0,0.0540106218478344,28.23458041219322
8,0.008,0.0,0.0617264249689536,32.26809189964945
9,0.009,6.20157053733267e-07,0.0694422280900729,36.30160338710556
10,0.01,5.590567280492421e-06,0.0771580312111921,40.33511487456174
11,0.011,1.895163089492945e-05,0.0848738343323112,44.368626362017935
12,0.012,3.291931603242907e-05,0.0925896374534302,48.402137849474286
13,0.013,6.785246653293201e-05,0.1003054405745496,52.43564933693036
14,0.014,0.00012360872900873748,0.1080212436956689,56.46916082438645
15,0.015,0.00018915350827714169,0.115737046816788,60.50267231184278
16,0.016,0.0002520685282265545,0.1234528499379072,64.53618379929893
17,0.017,0.00035924111965597854,0.1311686530590265,68.56969528675502
18,0.018,0.0004863104067480715,0.1388844561801458,72.60320677421116
19,0.019,0.0006925141979758305,0.1466002593012652,76.63671826166748
20,0.02,0.0009394272164987384,0.1543160624223843,80.67022974912351
21,0.021,0.0012126538044555,0.1620318655435035,84.70374123657959
22,0.022,0.0015686997163841,0.1697476686646225,88.73725272403586
23,0.023,0.0019959839886912,0.1774634717857413,92.77076421149184
24,0.024,0.0024781452489301,0.1851792749068605,96.80427569894856
25,0.025,0.0029436985075077,0.19289507802798,100.83778718640437
26,0.026,0.003596475914889,0.2006108811490994,104.87129867386071
27,0.027,0.0042801122955709,0.2083266842702187,108.90481016131712
28,0.028,0.0050525817996509,0.2160424873913377,112.93832164877283
29,0.029,0.0060151265249555,0.2237580927034072,116.97170689764096
30,0.03,0.0070922011598904,0.2314735436962854,121.00499282627723
31,0.031,0.0080319138378283,0.2391889568116176,125.0382641195498
32,0.032,0.0092018662658342,0.2469036128282327,129.07112847161227
33,0.033,0.0105681450436835,0.2546175310288407,133.10350998031547
34,0.034,0.0120184446144522,0.2623309982039852,137.13556300114772
35,0.035,0.0134297195325072,0.2700428463240811,141.1667227012647
36,0.036,0.0149723443507573,0.2777537441554122,145.1973509486729
37,0.037,0.016568666301776,0.2854627061102241,149.22686556355393
38,0.038,0.018231817610856,0.2931711505844293,153.25605784215372
39,0.039,0.0200467818308298,0.3008792215578139,157.28496801146503
40,0.04,0.0218895749767194,0.3085861775421626,161.31327410717287
41,0.041,0.0238968647561643,0.3162912057409439,165.34053071007213
42,0.042,0.0259856963841767,0.3239938665264323,169.36634547761298
43,0.043,0.0284154158264885,0.3316928109320595,173.39017636121883
44,0.044,0.031027417403276,0.339385154954514,177.41055520218328
45,0.045,0.0337525732467642,0.3470733051556175,181.4287105449665
46,0.046,0.0368860484466993,0.3547600513902617,185.44583331645404
47,0.047,0.0399076547225776,0.3624436823564257,189.4611066417426
48,0.048,0.0432904360869038,0.370124299165585,193.47471355681677
49,0.049,0.0465743374433174,0.3778001861794425,197.4859409497902
50,0.05,0.0501753632804724,0.3854739934911892,201.4958852482907
51,0.051,0.0539482937407266,0.3931467589868441,205.50493911890348
52,0.052,0.0577326959454633,0.4008143477932968,209.51138214102258
53,0.053,0.0615108321514086,0.4084770202904346,213.51493279400597
54,0.054,0.0654256237737733,0.4161362875252633,217.51636283421263
55,0.055,0.0693781733101761,0.4237907682823441,221.5150102366369
56,0.056,0.073086227868732,0.4314419605475336,225.5112400877344
57,0.057,0.0769612783176534,0.4390850538728894,229.50312198853308
58,0.058,0.080784350416204,0.4467215757350256,233.49141429057138
59,0.059,0.0846590104238086,0.454349331786505,237.475312138098
60,0.06,0.0886762757852937,0.4619687634470223,241.4550372242844
61,0.061,0.0926385939216026,0.4695782242793391,245.42930616157963
62,0.062,0.0969981776204581,0.4771740811721247,249.39635369073878
63,0.063,0.1010480313421831,0.4847589245312259,253.35759067135552
64,0.064,0.1049771185168801,0.4923381391274856,257.315193824374
65,0.065,0.1087307302975896,0.4999087177025428,261.2679948581132
66,0.066,0.1125570235363822,0.5074737893937197,265.21796695183036
67,0.067,0.1163253225083039,0.5150292816990163,269.1631433731365
68,0.068,0.1202596521204421,0.5225764119724295,273.10384086651874
69,0.069,0.1240840876402035,0.5301133748894002,277.03921164548325
70,0.07,0.1282301290066423,0.537638991560169,280.96878043936283
71,0.071,0.1322220324846499,0.5451495351730979,284.89087312248375
72,0.072,0.1363178394992522,0.5526465094990386,288.8059622050413
73,0.073,0.1406299082243889,0.5601291039084209,292.71359830998153
74,0.074,0.1447817760260483,0.5676015790669436,296.6156608601308
75,0.075,0.1487758451116998,0.5750633147031227,300.51143563861785
76,0.076,0.1529731951499025,0.5825137546436436,304.40093608025563
77,0.077,0.1572844169171358,0.5899505005372506,308.28261455035806
78,0.078,0.1616784672339571,0.597375289847429,312.15785320791906
79,0.079,0.1657286238828226,0.6047830904316642,316.02434409054854
80,0.08,0.1700504078289608,0.6121774112381797,319.88406045274104
81,0.081,0.1743129635437044,0.6195598689365995,323.73764264010345
82,0.082,0.1788186820436499,0.6269260534154756,327.5822115675877
83,0.083,0.1831017344362319,0.6342740579939429,331.4168466511441
84,0.084,0.1872880524565095,0.6416017707375588,335.2409220775715
85,0.085,0.191419352048544,0.6488567254398353,339.02641474861525
86,0.086,0.1956658107917978,0.6562141799762417,342.86487338484125
87,0.087,0.1999143179294187,0.663414958287936,346.6214624277017
88,0.088,0.2041022403456482,0.6706653281993273,350.4034163795639
89,0.089,0.2083477717813557,0.6779023933974555,354.1779871248196
90,0.09,0.2126523592516218,0.685125943507162,357.9453108865088
91,0.091,0.2167336934057543,0.6923254308370018,361.700557191926
92,0.092,0.2213711747400963,0.6996074871950559,365.4990268148468
93,0.093,0.2257634440753335,0.7067701553482819,369.2354348351762
94,0.094,0.2301122651951389,0.7139213726615468,372.96532152484656
95,0.095,0.2343481022644825,0.7209286775227564,376.61967762904254
96,0.096,0.2386108083921561,0.7280279859312272,380.32186766136624
97,0.097,0.2428619507522113,0.735106537039668,384.01317664194306
98,0.098,0.2473478698933958,0.7423045493670508,387.76679946786794
99,0.099,0.2516524677185532,0.749344660755321,391.4377921707973
100,0.1,0.2557405841163495,0.7563606058023116,395.0958194758371
