,strain [1],vMdamFac,vonMisesdamind,stress [MPa]
0,0.0,0.0,0.0,0.0
1,0.001,0.0,0.0095641334285924,4.9771178480703595
2,0.002,0.0,0.0191282668571849,9.954235696140717
3,0.003,7.463803872982442e-08,0.0286924002857773,14.931353544211087
4,0.004,3.3655864995840905e-06,0.0382565337143699,19.90847139228144
5,0.005,1.1565627658573306e-05,0.0478206671429623,24.885589240351866
6,0.006,3.050136305264197e-05,0.0573848005715548,29.862707088422166
7,0.007,6.136686830246229e-05,0.066948934000147,34.83982493649245
8,0.008,0.00010216569814034956,0.0765130674287398,39.81694278456286
9,0.009,0.00016534553873120156,0.0860771795949293,44.79404842125542
10,0.01,0.0002669278115266898,0.0956411699909622,49.771088054192866
11,0.011,0.0004208175705653757,0.1052048929744439,54.74797872158549
12,0.012,0.0006374952500213519,0.1147676109694641,59.724309743249634
13,0.013,0.0009346734001213442,0.1243284416450439,64.69962529466139
14,0.014,0.0013205063586413,0.1338875732365708,69.67402190671616
15,0.015,0.0017782231149171,0.1434449493973929,74.64745133207617
16,0.016,0.0023210080561428,0.1529991891838871,79.61922599875545
17,0.017,0.003004211102148,0.1625492411310668,84.5888394955134
18,0.018,0.0037789846136972,0.1720948853548375,89.55611605897295
19,0.019,0.0046516055815827,0.1816349164421794,94.52047469540997
20,0.02,0.0057653867355114,0.1911696390466677,99.48198488595564
21,0.021,0.0069607366286639,0.2006974368039701,104.4398769756366
22,0.022,0.0083704218696484,0.2102183318650227,109.39412869067309
23,0.023,0.0099643310732863,0.2197312229829067,114.34434755595396
24,0.024,0.0116605481457021,0.2292373723394165,119.29101033627579
25,0.025,0.0134444484257236,0.2387357498823634,124.23354397980448
26,0.026,0.0153719397315314,0.248222379266213,129.17006067555147
27,0.027,0.0176058432460324,0.2576985461595124,134.1012287442118
28,0.028,0.0199463070744442,0.2671640024626762,139.0267399911981
29,0.029,0.022748425107672,0.2766183298659252,143.94637191669366
30,0.03,0.0257032789446409,0.2860591213086477,148.85888695292314
31,0.031,0.028940334389819,0.2954877549979437,153.7649238280979
32,0.032,0.0324525908057982,0.3049032048298414,158.66399505951657
33,0.033,0.0363043339602308,0.3143046233091272,163.55547771382928
34,0.034,0.0405832148989374,0.3236888764726347,168.43793591376365
35,0.035,0.0449255147675878,0.3330566666168848,173.31191738960317
36,0.036,0.0494119763887088,0.3424062613397102,178.17664223241437
37,0.037,0.0540299973815349,0.3516607361570638,182.9921749608723
38,0.038,0.0586863030893668,0.3609559889633307,187.82871079177667
39,0.039,0.0634407573002307,0.3702297466061504,192.6536943825261
40,0.04,0.0681814791575342,0.3794798807623242,197.4661318552558
41,0.041,0.0733920956889985,0.3887047270588153,202.2653490726301
42,0.042,0.078478740341169,0.3979023997826642,207.05024655292965
43,0.043,0.0835367742533818,0.4070725566445449,211.8207058103637
44,0.044,0.0892616083690006,0.4162124380194545,216.57559378007997
45,0.045,0.0946689023096314,0.4253206305351659,221.3140321974742
46,0.046,0.0998321507589744,0.4343976616738959,226.03636706478824
47,0.047,0.1053012274957577,0.443443578945067,230.74245503600622
48,0.048,0.1109194342398548,0.4524577725160796,235.43231644640707
49,0.049,0.1168674920009364,0.4614410547489471,240.1056073299688
50,0.05,0.123818541519038,0.4703873138804726,244.75961232068067
51,0.051,0.1301664265657635,0.4792972786161356,249.3943862301374
52,0.052,0.1367241463041369,0.4881689430420877,254.0091216484918
53,0.053,0.1429371875177641,0.4970049023337115,258.6052732038278
54,0.054,0.1488454616054936,0.5057990251335719,263.1798329293406
55,0.055,0.1548837355612123,0.5145522484741162,267.7328513928497
56,0.056,0.1604628980843828,0.5232675940663558,272.2657616034867
57,0.057,0.1658817629539927,0.5319404881327736,276.7763932992756
58,0.058,0.1712343038733603,0.5405711788878255,281.26520135903564
59,0.059,0.1766053641526596,0.549159497196448,285.73208361589764
60,0.06,0.1816792571856613,0.5577048450789202,290.1767511431994
61,0.061,0.1866150209914129,0.5662002554507706,294.5954281831327
62,0.062,0.1917813672349538,0.5746458543380999,298.98855021246044
63,0.063,0.1964647040831086,0.5830444534453731,303.3567851871144
64,0.064,0.2010630621035035,0.5913947351070934,307.69949398978974
65,0.065,0.2056149391421786,0.5996920960392743,312.0139944021285
66,0.066,0.21037842082321,0.6079362993960022,316.3005667278475
67,0.067,0.2146852668845072,0.6161281861376108,320.5598313576673
68,0.068,0.2191842280313126,0.624264489087453,324.789617150162
69,0.069,0.2236800002645585,0.6323493676618593,328.9923109444757
70,0.07,0.2281628679142268,0.640374699410618,333.1645241446591
71,0.071,0.2327839874088801,0.6483436542333314,337.307658053839
72,0.072,0.236921212328419,0.6562507032841934,341.41863711616224
73,0.073,0.2413360014456488,0.6640334363951461,345.46555856133074
74,0.074,0.2452777857317136,0.6718160989946016,349.5126419963708
75,0.075,0.2493179145043532,0.6795395098688702,353.52917892737804
76,0.076,0.2528288918309442,0.6872016167694633,357.5138491669295
77,0.077,0.2566942894596006,0.6948077196646696,361.4684963802344
78,0.078,0.2605787215954663,0.70236216401433,365.3949282561647
79,0.079,0.2642597044538919,0.7098566743428246,369.2899329587683
80,0.08,0.2680525028655271,0.717287761166071,373.1524774579707
81,0.081,0.2718281480267669,0.7246560462641438,376.98224949133004
82,0.082,0.2753784637776902,0.7319607510681765,380.7785798013592
83,0.083,0.2787456815911558,0.7391988321461658,384.5410899997769
84,0.084,0.2823777347653171,0.7463695243936912,388.26764043832327
85,0.085,0.285522854207688,0.7534826832667276,391.9627186568272
86,0.086,0.2887005893513535,0.7605293553235818,395.62273065858767
87,0.087,0.2921031404576211,0.767511975306726,399.2495264778563
88,0.088,0.2950465376475032,0.7744299146918562,402.8426175334491
89,0.089,0.2981492502343092,0.7812850694500434,406.40261401155254
90,0.09,0.3011951535378939,0.7880749897022283,409.9284372858029
91,0.091,0.303748850842981,0.7947973208415384,413.41973267967626
92,0.092,0.3067460635156681,0.8014592488380797,416.87953197093077
93,0.093,0.3095776484308851,0.8080507841399256,420.30314137812536
94,0.094,0.3120082713613507,0.8145711267583046,423.6907620633239
95,0.095,0.3145760746200051,0.8210195219278213,427.04080209546834
96,0.096,0.3174138015326898,0.8273958364832186,430.3528580276369
97,0.097,0.3199282468907817,0.8337027531923435,433.6286252799415
98,0.098,0.322501972867408,0.8399454155572462,436.8707963231255
99,0.099,0.3250310541324367,0.8461194915385669,440.07744850411115
100,0.1,0.3274643732376631,0.8522224909975995,443.24786771802945
