,strain [1],vMdamFac,vonMisesdamind,stress [MPa]
0,0.0,0.0,0.0,0.0
1,0.001,0.0,0.0072964745130838,3.808397546103748
2,0.002,0.0,0.0145929490261677,7.616795092207495
3,0.003,0.0,0.0218894235392517,11.425192638311257
4,0.004,3.4341777142565306e-07,0.0291858980523356,15.233590184414984
5,0.005,2.1494901329557942e-06,0.0364823725654195,19.041987730518702
6,0.006,7.283934446647414e-06,0.0437788470785034,22.85038527662252
7,0.007,1.9571386518079884e-05,0.0510753215915872,26.65878282272628
8,0.008,3.497899312692716e-05,0.0583717961046712,30.46718036882999
9,0.009,6.580801348217411e-05,0.065668270617755,34.275577914933784
10,0.01,0.0001215773683150273,0.072964745130839,38.0839754610374
11,0.011,0.00020191780593461817,0.0802612196439229,41.89237300714127
12,0.012,0.00031467895805162505,0.0875576372679363,45.700737654326446
13,0.013,0.0004534553970398936,0.0948536651230585,49.50887145347658
14,0.014,0.0006157448961066836,0.10214950872183,53.31689126731828
15,0.015,0.0008566751393427777,0.1094448222964462,57.124570880192664
16,0.016,0.0011624682619977,0.1167396376669546,60.93193717123488
17,0.017,0.0015758099042747,0.124034338782778,64.73924229891855
18,0.018,0.0019941090169534,0.1313278956307417,68.54583462449725
19,0.019,0.0024565555819405,0.1386209701354552,72.3521177593869
20,0.02,0.0029836294242257,0.1459121902258741,76.15723036599998
21,0.021,0.0036580661540602,0.1532015744991054,79.96124311976769
22,0.022,0.0043715079840463,0.1604871820449731,83.76333349140431
23,0.023,0.0052352585965771,0.1677703220079295,87.56417083070728
24,0.024,0.0061892107064958,0.1750535217302518,91.36492803567116
25,0.025,0.0073488799464746,0.1823353452575405,95.16487017540193
26,0.026,0.0086629033597807,0.1896166020467468,98.96444712572148
27,0.027,0.0102094127420339,0.1968931140600809,102.76146716839138
28,0.028,0.0121776457020668,0.2041660884811555,106.5563634716465
29,0.029,0.0141615634401883,0.2114345307508059,110.34864644720895
30,0.03,0.0163337287654536,0.2186978154568441,114.13804200777803
31,0.031,0.0184188970310309,0.2259555704221158,117.92452054053442
32,0.032,0.0206082591072799,0.2332079733582284,121.70800789304288
33,0.033,0.0229207344709979,0.2404525269243838,125.48694423550428
34,0.034,0.0252578669338124,0.2476903110911623,129.2620886975247
35,0.035,0.0275494543160913,0.2549202732400528,133.03297735913367
36,0.036,0.0299731626914323,0.2621454049381588,136.80125156475316
37,0.037,0.0322571286471264,0.2693636142713241,140.56585747785522
38,0.038,0.0347873005114663,0.2765759483906078,144.32728812816796
39,0.039,0.0372083406648784,0.2837796770291337,148.08400726013826
40,0.04,0.0397291558874529,0.2909734139199189,151.83515781921437
41,0.041,0.0424489358331653,0.2981594125087269,155.58184298066575
42,0.042,0.0453596996222233,0.3053348927632305,159.322884172819
43,0.043,0.0482061604392872,0.312501680647134,163.0595635758653
44,0.044,0.050911476706085,0.3196572897503253,166.79053745674602
45,0.045,0.0537248462561237,0.3268045076195647,170.5172275457205
46,0.046,0.0568369817356283,0.3339437671607875,174.23903061536862
47,0.047,0.0598384975133089,0.3410695726423601,177.95396004279414
48,0.048,0.0629330458346079,0.3481810347142982,181.66113691502872
49,0.049,0.0662154949766591,0.3552763364904103,185.36006514389257
50,0.05,0.0696424859101996,0.3623563101094738,189.0510034358709
51,0.051,0.072989405960017,0.3694227685989643,192.73459398526342
52,0.052,0.0763616380029843,0.37647162569904,196.40889607513785
53,0.053,0.0801268815766757,0.383508846439076,200.0768185348849
54,0.054,0.0833763572593131,0.3905288013598129,203.7357087512447
55,0.055,0.0866632243312881,0.3975333562038772,207.3864085441787
56,0.056,0.0902533183085801,0.4045180968280431,211.02766590515535
57,0.057,0.0940290046256307,0.4114851327259959,214.65963465567685
58,0.058,0.0976943605801132,0.4184371720117487,218.28340724136615
59,0.059,0.1014686920827328,0.425369691180719,221.89727888540105
60,0.06,0.105151225396892,0.4322906123503487,225.50441484482664
61,0.061,0.1089736170197955,0.4391393122020869,229.07400468403256
62,0.062,0.1127936328310418,0.4460732260393671,232.68770429057375
63,0.063,0.1169255374902209,0.4529363787119176,236.2642357795284
64,0.064,0.1207772174084629,0.4597033352992503,239.79084688688522
65,0.065,0.1247720550182504,0.4665163571838609,243.3407515204425
66,0.066,0.1286802700026986,0.4733132805012514,246.88129036460944
67,0.067,0.1328316089222233,0.4800952589727218,250.4132585700643
68,0.068,0.1370541442627836,0.4868572297442989,253.93299062121537
69,0.069,0.1412361593854317,0.4935956755088146,257.4398998666851
70,0.07,0.1453432810365525,0.5003057602764029,260.9328478062076
71,0.071,0.149643770265581,0.5069927356531594,264.4137678158384
72,0.072,0.1538651683957869,0.5136537608563307,267.8809706581637
73,0.073,0.158059312735189,0.5202852613231063,271.33356207416455
74,0.074,0.1620400239128048,0.5268951299530247,274.77481120877684
75,0.075,0.1660331713019388,0.5334830423369376,278.2044254327115
76,0.076,0.1700748338269444,0.540046385432335,281.6211646387956
77,0.077,0.1737134132318406,0.5465857706939046,285.0247342474035
78,0.078,0.1774923633277771,0.5530999389021275,288.4145324083824
79,0.079,0.1812761354643018,0.559583576560915,291.7882262003584
80,0.08,0.1850661940772591,0.5660434219878482,295.14884442293896
81,0.081,0.1885006667761127,0.5724766844821653,298.49521550798363
82,0.082,0.191891304122536,0.5788774310027519,301.8247258729428
83,0.083,0.1955059679822714,0.585251470038549,305.1397012438477
84,0.084,0.1989906061004404,0.5915985109017512,308.4400890251838
85,0.085,0.2025044815256211,0.5979119075190059,311.72323118941785
86,0.086,0.2056743071235329,0.6041934232032296,314.9895298706506
87,0.087,0.2090055256425996,0.6104370403013907,318.2363165813143
88,0.088,0.2121676969506554,0.6166410824023755,321.4624059762571
89,0.089,0.2154849386389156,0.6228026017652766,324.6670115266868
90,0.09,0.2188919523877061,0.6289258653764119,327.8518367382544
91,0.091,0.222124318019396,0.6350089375648519,331.01545416056723
92,0.092,0.2254362129672716,0.6410570309005851,334.16051836672915
93,0.093,0.2286436153185058,0.6470625518041275,337.2838686388828
94,0.094,0.2317223902860657,0.6530290624637877,340.3872717264429
95,0.095,0.2348059098258113,0.6589494688400721,343.466827678848
96,0.096,0.2380879703846713,0.6648177294791149,346.5203333965889
97,0.097,0.2411803548384779,0.67064142696152,349.5509628433974
98,0.098,0.2440083063753687,0.6764216806351651,352.55846395655584
99,0.099,0.2470855638836167,0.6821513070968591,355.5398402091337
100,0.1,0.249831756991654,0.6878327154590383,358.4956896502106
