,strain [1],vMdamFac,vonMisesdamind,stress [MPa]
0,0.0,0.0,0.0,0.0
1,0.001,0.0,0.005524226859589,2.8792790947637203
2,0.002,0.0,0.0110484537191781,5.758558189527442
3,0.003,0.0,0.0165726805787672,8.63783728429115
4,0.004,0.0,0.0220969074383562,11.517116379054878
5,0.005,1.769612806908543e-07,0.0276211342979453,14.396395473818595
6,0.006,4.085247193030205e-07,0.0331453611575344,17.275674568582296
7,0.007,6.30336080733939e-06,0.0386695880171234,20.154953663346067
8,0.008,3.3431192038372704e-05,0.0441938148767125,23.03423275810976
9,0.009,7.051426499059613e-05,0.0497180417363016,25.913511852873455
10,0.01,0.00010780299419604272,0.0552422685958907,28.792790947637183
11,0.011,0.00021184468890932448,0.0607664954554796,31.672070042401014
12,0.012,0.00033474631813953763,0.0662907223150689,34.5513491371646
13,0.013,0.000448309334139004,0.0718149491746579,37.43062823192836
14,0.014,0.0006168588699904695,0.0773391760342469,40.30990732669214
15,0.015,0.000828737201043798,0.082863402893836,43.189186421455666
16,0.016,0.0011101879141179,0.0883876297534251,46.06846551621952
17,0.017,0.0014295924029104,0.0939118032440474,48.94771000927805
18,0.018,0.0018361605948012,0.0994358663591046,51.82688293386176
19,0.019,0.0023154806523822,0.1049598658282497,54.70601413363538
20,0.02,0.0029316945939969,0.110483837994819,57.585127505599445
21,0.021,0.0037021180755729,0.1160073067786316,60.463937618088615
22,0.022,0.0045620449254963,0.1215294632632456,63.34200157246643
23,0.023,0.005490413805854,0.1270511415719837,66.21974945007993
24,0.024,0.0066076722917652,0.132572019397281,69.09697624243903
25,0.025,0.0077653056899187,0.1380912715061227,71.97321161545025
26,0.026,0.0091348831943794,0.1436068078503146,74.84740703931966
27,0.027,0.0104863211319479,0.1491165670864876,77.71832778195338
28,0.028,0.0119193403715022,0.1546224648285442,80.58715821685439
29,0.029,0.013356787506723,0.1601243896227984,83.45389464730876
30,0.03,0.0148637575790372,0.1656230960379695,86.31883857895086
31,0.031,0.0164954689198556,0.1711193091183907,89.1826454652521
32,0.032,0.018107028054838,0.1766119020018629,92.0443390840092
33,0.033,0.019591159209864,0.1821004967991414,94.90390272262827
34,0.034,0.021386291933069,0.187580664208369,97.75899909786646
35,0.035,0.0230787541650526,0.1930501106016897,100.60843911423014
36,0.036,0.0248278610785419,0.198510990928279,103.45355407845548
37,0.037,0.0265111665749095,0.2039586742333741,106.29232014243595
38,0.038,0.028385665280766,0.2093936980734633,109.12460276160648
39,0.039,0.0300863940921808,0.2148222176538505,111.9530681351756
40,0.04,0.0320576483530051,0.2202504559888869,114.78075869804744
41,0.041,0.0337305876189413,0.2256696366202928,117.6039495719537
42,0.042,0.0355774189735526,0.2310779101505353,120.42154596861096
43,0.043,0.0373948190600909,0.236476573826433,123.23413467061764
44,0.044,0.0392352681225204,0.2418635506294396,126.04026830683011
45,0.045,0.0412441378733055,0.2472393617188727,128.84062753216284
46,0.046,0.0433675996705581,0.2525981829076099,131.6321653896756
47,0.047,0.0457261231469678,0.2579386634501106,134.41446792973443
48,0.048,0.0477937958367271,0.2632593731090467,137.1863107198816
49,0.049,0.0499850632005497,0.268571056270626,139.95318102650154
50,0.05,0.0520759654410454,0.2738694970542732,142.71265029062923
51,0.051,0.0542761493661244,0.2791549974789037,145.46489655052528
52,0.052,0.0565835501600849,0.2844207797364917,148.20674029461344
53,0.053,0.0590314854140164,0.2896645339644589,150.93615036595023
54,0.054,0.0613504817925541,0.2948933654714814,153.65734100657562
55,0.055,0.0636699866262822,0.3001058257764343,156.3696846068462
56,0.056,0.0660467175795189,0.305264164899746,159.05393473314928
57,0.057,0.0685478653080759,0.3104342549521186,161.74503003764545
58,0.058,0.0709077681656628,0.315582631622975,164.42489115137093
59,0.059,0.0733949023527228,0.3207094697164567,167.09341305167263
60,0.06,0.0757812434874363,0.3258149056890251,169.75070720894007
61,0.061,0.0784018979105792,0.3308937102381487,172.3944751368787
62,0.062,0.0809521843456637,0.3359487971838409,175.02626585405096
63,0.063,0.0831376193995345,0.3409822647564618,177.647078047304
64,0.064,0.0854211267937257,0.3459932758383374,180.25605243557519
65,0.065,0.0876896727241552,0.350976051405773,182.84985859099115
66,0.066,0.0898967647720517,0.3559317168811362,185.42918778422347
67,0.067,0.0921136263920356,0.3608561219861736,187.99165080889003
68,0.068,0.0943737160779197,0.3657505363246263,190.53795667536588
69,0.069,0.096700881265162,0.3706200933523716,193.07095759704035
70,0.07,0.0988734560621752,0.3754628732942235,195.59019458542383
71,0.071,0.1012392461112325,0.3802789659569075,198.09553923185533
72,0.072,0.1036710427032872,0.3850690300228139,200.586796324302
73,0.073,0.1058623582515976,0.3898270623233484,203.06112614605655
74,0.074,0.1081080743729483,0.3945568223738073,205.52003572689478
75,0.075,0.1102879122899623,0.3992545485560196,207.96234061457028
76,0.076,0.1125156300577905,0.4039159858695661,210.38585780332383
77,0.077,0.1145679790481885,0.4085435927297414,212.79214883715906
78,0.078,0.1167835718914728,0.4131368538938222,215.18046757974477
79,0.079,0.1190820574548293,0.4176989703643534,217.5516326744037
80,0.08,0.1213459207590229,0.4222327750662033,219.90770211373402
81,0.081,0.1233755548660966,0.4267358188303039,222.247493189572
82,0.082,0.1256510800506741,0.4312066011414627,224.57083363317687
83,0.083,0.1279500818630039,0.4356420048530007,226.87555002562516
84,0.084,0.1300246356123255,0.4400501774851055,229.16588008149085
85,0.085,0.1321809643697489,0.4444263170299429,231.44006184725407
86,0.086,0.1343984091273296,0.4487694751547069,233.69748139270231
87,0.087,0.136551154550477,0.4530796796961408,235.9384990629523
88,0.088,0.1388104147284966,0.4573568787345915,238.16228227634315
89,0.089,0.1411427987922659,0.4616026712152226,240.36928186209764
90,0.09,0.1434733396671848,0.4658088304939378,242.55596080267966
91,0.091,0.1456320328882276,0.4699745221089834,244.72179072742617
92,0.092,0.1479318666162443,0.4741014251705341,246.86754523835845
93,0.093,0.1501790839060437,0.4781923640366452,248.9947494969209
94,0.094,0.152461139080137,0.4822413080271074,251.1005002232539
95,0.095,0.1547753101626202,0.4862495886136177,253.18560226281372
96,0.096,0.1567368239296811,0.4902286228471716,255.25446853892672
97,0.097,0.1589321590035265,0.4941764131765735,257.306905691962
98,0.098,0.1610181055129678,0.4980877171003505,259.3397780558232
99,0.099,0.1631699479679546,0.5019681992990245,261.35668049115037
100,0.1,0.1653673839113734,0.5058184713478996,263.3564101759023
